gen cost
0 1451
1 1428
2 1398
3 1376
4 1346
5 1323
6 1301
7 1299
8 1291
9 1269
10 1256
11 1256
12 1256
13 1256
14 1256
15 1256
16 1256
17 1256
18 1256
19 1256
20 1256
21 1256
22 1255
23 1255
24 1255
25 1255
26 1255
27 1255
28 1255
29 1255
30 1255
31 1255
32 1255
33 1255
34 1255
35 1255
36 1255
37 1255
38 1255
39 1255
40 1255
41 1255
42 1255
43 1255
44 1255
45 1255
46 1255
47 1255
48 1255
49 1255
